NAME : mtspf.pid6363.gtsp
TYPE : ATSP
DIMENSION : 43
EDGE_WEIGHT_TYPE : EXPLICIT
EDGE_WEIGHT_FORMAT : FULL_MATRIX
EDGE_WEIGHT_SECTION
999999 5368709 5468708 5368731 5368730 5368729 5368730 5368728 5368729 5368728 5368727 5368749 5368748 5368747 5368748 5368726 5368725 5368724 5368725 5368742 5368741 5368742 5368743 5368735 5368734 5368733 5368734 5368737 5368736 5368735 5368736 5368729 5368728 5368729 5368730 5368716 5368717 5368718 5368717 5368729 5368730 5368729 5368728 
5468708 999999 5368709 5368747 5368748 5368747 5368746 5368762 5368763 5368762 5368761 5368737 5368736 5368735 5368736 5368744 5368745 5368744 5368743 5368728 5368727 5368726 5368727 5368729 5368730 5368729 5368728 5368739 5368740 5368739 5368738 5368727 5368728 5368727 5368726 5368750 5368751 5368750 5368749 5368763 5368764 5368763 5368762 
5368709 5468708 999999 5368736 5368737 5368738 5368737 5368751 5368752 5368753 5368752 5368720 5368721 5368722 5368721 5368733 5368734 5368735 5368734 5368719 5368718 5368719 5368720 5368718 5368719 5368720 5368719 5368728 5368729 5368730 5368729 5368742 5368741 5368742 5368743 5368739 5368740 5368741 5368740 5368752 5368753 5368754 5368753 
5368709 5368709 5368709 999999 0 10737418 10737418 5368727 5368728 5368727 5368726 5368730 5368731 5368730 5368729 5368715 5368716 5368717 5368716 5368745 5368744 5368743 5368744 5368730 5368729 5368728 5368729 5368720 5368719 5368718 5368719 5368730 5368729 5368730 5368731 5368725 5368726 5368727 5368726 5368728 5368729 5368728 5368727 
5368709 5368709 5368709 10737418 999999 0 10737418 5368726 5368727 5368728 5368727 5368729 5368730 5368729 5368728 5368716 5368717 5368718 5368717 5368744 5368743 5368744 5368745 5368729 5368728 5368729 5368730 5368719 5368718 5368719 5368720 5368731 5368730 5368731 5368732 5368726 5368727 5368728 5368727 5368727 5368728 5368729 5368728 
5368709 5368709 5368709 10737418 10737418 999999 0 5368725 5368726 5368727 5368726 5368730 5368729 5368728 5368729 5368717 5368716 5368717 5368718 5368745 5368744 5368745 5368746 5368730 5368729 5368730 5368731 5368720 5368719 5368720 5368721 5368732 5368731 5368732 5368733 5368727 5368726 5368727 5368728 5368726 5368727 5368728 5368727 
5368709 5368709 5368709 0 10737418 10737418 999999 5368726 5368727 5368726 5368725 5368731 5368730 5368729 5368730 5368716 5368715 5368716 5368717 5368746 5368745 5368744 5368745 5368731 5368730 5368729 5368730 5368721 5368720 5368719 5368720 5368731 5368730 5368731 5368732 5368726 5368725 5368726 5368727 5368727 5368728 5368727 5368726 
5368709 5368709 5368709 5368727 5368726 5368725 5368726 999999 0 10737418 10737418 5368743 5368742 5368741 5368742 5368730 5368729 5368728 5368729 5368760 5368759 5368758 5368759 5368745 5368744 5368743 5368744 5368735 5368734 5368733 5368734 5368747 5368746 5368745 5368746 5368724 5368725 5368726 5368725 5368713 5368714 5368713 5368712 
5368709 5368709 5368709 5368726 5368725 5368726 5368727 10737418 999999 0 10737418 5368742 5368741 5368742 5368743 5368729 5368728 5368729 5368730 5368759 5368758 5368759 5368760 5368744 5368743 5368744 5368745 5368734 5368733 5368734 5368735 5368746 5368745 5368746 5368747 5368725 5368726 5368727 5368726 5368712 5368713 5368712 5368711 
5368709 5368709 5368709 5368727 5368726 5368727 5368728 10737418 10737418 999999 0 5368743 5368742 5368743 5368744 5368730 5368729 5368730 5368731 5368760 5368759 5368760 5368761 5368745 5368744 5368745 5368746 5368735 5368734 5368735 5368736 5368747 5368746 5368747 5368748 5368726 5368725 5368726 5368727 5368711 5368712 5368711 5368710 
5368709 5368709 5368709 5368728 5368727 5368726 5368727 0 10737418 10737418 999999 5368744 5368743 5368742 5368743 5368731 5368730 5368729 5368730 5368761 5368760 5368759 5368760 5368746 5368745 5368744 5368745 5368736 5368735 5368734 5368735 5368748 5368747 5368746 5368747 5368725 5368724 5368725 5368726 5368712 5368713 5368712 5368711 
5368709 5368709 5368709 5368728 5368729 5368730 5368729 5368743 5368744 5368743 5368742 999999 0 10737418 10737418 5368733 5368734 5368735 5368734 5368729 5368728 5368727 5368728 5368724 5368725 5368726 5368725 5368722 5368723 5368724 5368723 5368748 5368749 5368750 5368749 5368743 5368744 5368745 5368744 5368744 5368745 5368744 5368743 
5368709 5368709 5368709 5368729 5368730 5368731 5368730 5368742 5368743 5368744 5368743 10737418 999999 0 10737418 5368734 5368735 5368736 5368735 5368728 5368727 5368728 5368729 5368725 5368726 5368727 5368726 5368723 5368724 5368725 5368724 5368749 5368750 5368751 5368750 5368744 5368745 5368746 5368745 5368743 5368744 5368745 5368744 
5368709 5368709 5368709 5368730 5368729 5368730 5368731 5368741 5368742 5368743 5368742 10737418 10737418 999999 0 5368735 5368734 5368735 5368736 5368729 5368728 5368729 5368730 5368726 5368725 5368726 5368727 5368724 5368723 5368724 5368725 5368750 5368749 5368750 5368751 5368745 5368744 5368745 5368746 5368742 5368743 5368744 5368743 
5368709 5368709 5368709 5368729 5368728 5368729 5368730 5368742 5368743 5368742 5368741 0 10737418 10737418 999999 5368734 5368733 5368734 5368735 5368730 5368729 5368728 5368729 5368725 5368724 5368725 5368726 5368723 5368722 5368723 5368724 5368749 5368748 5368749 5368750 5368744 5368743 5368744 5368745 5368743 5368744 5368743 5368742 
5368709 5368709 5368709 5368717 5368718 5368717 5368716 5368730 5368731 5368730 5368729 5368735 5368736 5368735 5368734 999999 0 10737418 10737418 5368742 5368741 5368740 5368741 5368727 5368726 5368725 5368726 5368723 5368724 5368723 5368722 5368729 5368728 5368727 5368728 5368720 5368721 5368722 5368721 5368731 5368732 5368731 5368730 
5368709 5368709 5368709 5368716 5368717 5368716 5368715 5368729 5368730 5368731 5368730 5368734 5368735 5368734 5368733 10737418 999999 0 10737418 5368741 5368740 5368741 5368742 5368726 5368725 5368726 5368727 5368722 5368723 5368722 5368721 5368728 5368727 5368728 5368729 5368721 5368722 5368723 5368722 5368730 5368731 5368732 5368731 
5368709 5368709 5368709 5368717 5368716 5368715 5368716 5368728 5368729 5368730 5368729 5368735 5368734 5368733 5368734 10737418 10737418 999999 0 5368742 5368741 5368742 5368743 5368727 5368726 5368727 5368728 5368723 5368722 5368721 5368722 5368729 5368728 5368729 5368730 5368722 5368721 5368722 5368723 5368729 5368730 5368731 5368730 
5368709 5368709 5368709 5368718 5368717 5368716 5368717 5368729 5368730 5368729 5368728 5368736 5368735 5368734 5368735 0 10737418 10737418 999999 5368743 5368742 5368741 5368742 5368728 5368727 5368726 5368727 5368724 5368723 5368722 5368723 5368730 5368729 5368728 5368729 5368721 5368720 5368721 5368722 5368730 5368731 5368730 5368729 
5368709 5368709 5368709 5368745 5368746 5368745 5368744 5368760 5368761 5368760 5368759 5368729 5368730 5368729 5368728 5368742 5368743 5368742 5368741 999999 0 10737418 10737418 5368727 5368728 5368727 5368726 5368737 5368738 5368737 5368736 5368739 5368740 5368741 5368740 5368748 5368749 5368748 5368747 5368761 5368762 5368761 5368760 
5368709 5368709 5368709 5368744 5368745 5368746 5368745 5368759 5368760 5368761 5368760 5368728 5368729 5368730 5368729 5368741 5368742 5368743 5368742 10737418 999999 0 10737418 5368726 5368727 5368728 5368727 5368736 5368737 5368738 5368737 5368740 5368741 5368742 5368741 5368747 5368748 5368749 5368748 5368760 5368761 5368762 5368761 
5368709 5368709 5368709 5368743 5368744 5368745 5368744 5368758 5368759 5368760 5368759 5368727 5368728 5368729 5368728 5368740 5368741 5368742 5368741 10737418 10737418 999999 0 5368725 5368726 5368727 5368726 5368735 5368736 5368737 5368736 5368741 5368740 5368741 5368742 5368746 5368747 5368748 5368747 5368759 5368760 5368761 5368760 
5368709 5368709 5368709 5368744 5368745 5368744 5368743 5368759 5368760 5368759 5368758 5368728 5368729 5368728 5368727 5368741 5368742 5368741 5368740 0 10737418 10737418 999999 5368726 5368727 5368726 5368725 5368736 5368737 5368736 5368735 5368740 5368739 5368740 5368741 5368747 5368748 5368747 5368746 5368760 5368761 5368760 5368759 
5368709 5368709 5368709 5368730 5368731 5368730 5368729 5368745 5368746 5368745 5368744 5368726 5368727 5368726 5368725 5368727 5368728 5368727 5368726 5368727 5368726 5368725 5368726 999999 0 10737418 10737418 5368722 5368723 5368722 5368721 5368734 5368735 5368736 5368735 5368733 5368734 5368733 5368732 5368746 5368747 5368746 5368745 
5368709 5368709 5368709 5368729 5368730 5368731 5368730 5368744 5368745 5368746 5368745 5368725 5368726 5368725 5368724 5368726 5368727 5368728 5368727 5368726 5368725 5368726 5368727 10737418 999999 0 10737418 5368721 5368722 5368723 5368722 5368735 5368736 5368737 5368736 5368732 5368733 5368734 5368733 5368745 5368746 5368747 5368746 
5368709 5368709 5368709 5368728 5368729 5368730 5368729 5368743 5368744 5368745 5368744 5368726 5368725 5368724 5368725 5368725 5368726 5368727 5368726 5368727 5368726 5368727 5368728 10737418 10737418 999999 0 5368720 5368721 5368722 5368721 5368736 5368735 5368736 5368737 5368731 5368732 5368733 5368732 5368744 5368745 5368746 5368745 
5368709 5368709 5368709 5368729 5368730 5368729 5368728 5368744 5368745 5368744 5368743 5368727 5368726 5368725 5368726 5368726 5368727 5368726 5368725 5368728 5368727 5368726 5368727 0 10737418 10737418 999999 5368721 5368722 5368721 5368720 5368735 5368734 5368735 5368736 5368732 5368733 5368732 5368731 5368745 5368746 5368745 5368744 
5368709 5368709 5368709 5368720 5368721 5368720 5368719 5368735 5368736 5368735 5368734 5368724 5368725 5368724 5368723 5368721 5368722 5368723 5368722 5368737 5368736 5368735 5368736 5368722 5368721 5368720 5368721 999999 0 10737418 10737418 5368736 5368737 5368738 5368737 5368731 5368732 5368733 5368732 5368736 5368737 5368736 5368735 
5368709 5368709 5368709 5368719 5368720 5368721 5368720 5368734 5368735 5368736 5368735 5368723 5368724 5368723 5368722 5368722 5368723 5368724 5368723 5368736 5368735 5368736 5368737 5368721 5368720 5368721 5368722 10737418 999999 0 10737418 5368737 5368738 5368739 5368738 5368732 5368733 5368734 5368733 5368735 5368736 5368737 5368736 
5368709 5368709 5368709 5368718 5368719 5368720 5368719 5368733 5368734 5368735 5368734 5368724 5368723 5368722 5368723 5368723 5368722 5368723 5368724 5368737 5368736 5368737 5368738 5368722 5368721 5368722 5368723 10737418 10737418 999999 0 5368738 5368737 5368738 5368739 5368733 5368732 5368733 5368734 5368734 5368735 5368736 5368735 
5368709 5368709 5368709 5368719 5368720 5368719 5368718 5368734 5368735 5368734 5368733 5368725 5368724 5368723 5368724 5368722 5368721 5368722 5368723 5368738 5368737 5368736 5368737 5368723 5368722 5368721 5368722 0 10737418 10737418 999999 5368737 5368736 5368737 5368738 5368732 5368731 5368732 5368733 5368735 5368736 5368735 5368734 
5368709 5368709 5368709 5368732 5368733 5368732 5368731 5368747 5368748 5368747 5368746 5368750 5368751 5368750 5368749 5368729 5368730 5368729 5368728 5368741 5368742 5368741 5368740 5368736 5368737 5368736 5368735 5368738 5368739 5368738 5368737 999999 0 10737418 10737418 5368735 5368736 5368735 5368734 5368748 5368749 5368748 5368747 
5368709 5368709 5368709 5368731 5368732 5368731 5368730 5368746 5368747 5368748 5368747 5368749 5368750 5368749 5368748 5368728 5368729 5368730 5368729 5368740 5368741 5368740 5368739 5368735 5368736 5368735 5368734 5368737 5368738 5368737 5368736 10737418 999999 0 10737418 5368734 5368735 5368736 5368735 5368747 5368748 5368749 5368748 
5368709 5368709 5368709 5368730 5368731 5368730 5368729 5368745 5368746 5368747 5368746 5368750 5368749 5368748 5368749 5368727 5368728 5368729 5368728 5368741 5368740 5368739 5368740 5368736 5368735 5368734 5368735 5368738 5368737 5368736 5368737 10737418 10737418 999999 0 5368733 5368734 5368735 5368734 5368746 5368747 5368748 5368747 
5368709 5368709 5368709 5368731 5368732 5368731 5368730 5368746 5368747 5368746 5368745 5368751 5368750 5368749 5368750 5368728 5368729 5368728 5368727 5368742 5368741 5368740 5368741 5368737 5368736 5368735 5368736 5368739 5368738 5368737 5368738 0 10737418 10737418 999999 5368734 5368735 5368734 5368733 5368747 5368748 5368747 5368746 
5368709 5368709 5368709 5368727 5368728 5368727 5368726 5368726 5368727 5368726 5368725 5368745 5368746 5368745 5368744 5368722 5368723 5368722 5368721 5368748 5368747 5368746 5368747 5368733 5368732 5368731 5368732 5368733 5368734 5368733 5368732 5368735 5368734 5368733 5368734 999999 0 10737418 10737418 5368727 5368728 5368727 5368726 
5368709 5368709 5368709 5368726 5368727 5368726 5368725 5368725 5368726 5368725 5368724 5368744 5368745 5368744 5368743 5368721 5368722 5368721 5368720 5368747 5368746 5368747 5368748 5368732 5368731 5368732 5368733 5368732 5368733 5368732 5368731 5368734 5368733 5368734 5368735 10737418 999999 0 10737418 5368726 5368727 5368726 5368725 
5368709 5368709 5368709 5368727 5368726 5368725 5368726 5368726 5368725 5368724 5368725 5368745 5368744 5368743 5368744 5368722 5368721 5368720 5368721 5368748 5368747 5368748 5368749 5368733 5368732 5368733 5368734 5368733 5368732 5368731 5368732 5368735 5368734 5368735 5368736 10737418 10737418 999999 0 5368727 5368726 5368725 5368726 
5368709 5368709 5368709 5368728 5368727 5368726 5368727 5368727 5368726 5368725 5368726 5368746 5368745 5368744 5368745 5368723 5368722 5368721 5368722 5368749 5368748 5368747 5368748 5368734 5368733 5368732 5368733 5368734 5368733 5368732 5368733 5368736 5368735 5368734 5368735 0 10737418 10737418 999999 5368728 5368727 5368726 5368727 
5368709 5368709 5368709 5368728 5368727 5368726 5368727 5368711 5368710 5368711 5368712 5368744 5368743 5368742 5368743 5368731 5368730 5368729 5368730 5368761 5368760 5368759 5368760 5368746 5368745 5368744 5368745 5368736 5368735 5368734 5368735 5368748 5368747 5368746 5368747 5368725 5368726 5368727 5368726 999999 0 10737418 10737418 
5368709 5368709 5368709 5368727 5368726 5368727 5368728 5368712 5368711 5368712 5368713 5368743 5368742 5368743 5368744 5368730 5368729 5368730 5368731 5368760 5368759 5368760 5368761 5368745 5368744 5368745 5368746 5368735 5368734 5368735 5368736 5368747 5368746 5368747 5368748 5368726 5368727 5368728 5368727 10737418 999999 0 10737418 
5368709 5368709 5368709 5368728 5368727 5368728 5368729 5368713 5368712 5368713 5368714 5368744 5368743 5368744 5368745 5368731 5368730 5368731 5368732 5368761 5368760 5368761 5368762 5368746 5368745 5368746 5368747 5368736 5368735 5368736 5368737 5368748 5368747 5368748 5368749 5368727 5368726 5368727 5368728 10737418 10737418 999999 0 
5368709 5368709 5368709 5368729 5368728 5368727 5368728 5368712 5368711 5368712 5368713 5368745 5368744 5368743 5368744 5368732 5368731 5368730 5368731 5368762 5368761 5368760 5368761 5368747 5368746 5368745 5368746 5368737 5368736 5368735 5368736 5368749 5368748 5368747 5368748 5368726 5368725 5368726 5368727 0 10737418 10737418 999999 
EOF
